ITEM = _(1..50);
capacity = 10;
profits = [140, 274, 78, 26, 327, 574, 706, 103, 670, 766, 279, 203, 674, 917, 314, 156, 289, 207, 988, 971, 994, 753, 237, 131, 268, 459, 487, 55, 410, 207, 997, 487, 203, 203, 405, 18, 842, 786, 535, 264, 969, 175, 501, 466, 797, 777, 469, 699, 742, 571];
weights = [20, 18, 14, 68, 78, 43, 46, 90, 44, 70, 71, 90, 12, 48, 29, 76, 59, 58, 81, 68, 95, 50, 35, 22, 55, 82, 11, 44, 40, 77, 99, 35, 44, 73, 45, 79, 62, 94, 79, 75, 91, 52, 23, 15, 44, 82, 42, 34, 13, 46];
